solution status: optimal solution found
objective value:                                    0
$_239_y                                             2 	(obj:0)
$_164_z                                            -2 	(obj:0)
$_238_y                                            -2 	(obj:0)
$_238_z                                            -4 	(obj:0)
$_245_y                                            -2 	(obj:0)
$_245_z                                            -2 	(obj:0)
$_82_y                                             -1 	(obj:0)
$_82_z                                             -6 	(obj:0)
$_197_y                                            -2 	(obj:0)
$_197_z                                            -3 	(obj:0)
$_156_y                                            -1 	(obj:0)
$_156_z                                            -2 	(obj:0)
$_86_y                                             -1 	(obj:0)
$_86_z                                             -5 	(obj:0)
$_204_y                                            -1 	(obj:0)
$_204_z                                            -3 	(obj:0)
$_83_y                                             -1 	(obj:0)
$_83_z                                             -1 	(obj:0)
$_84_y                                             -2 	(obj:0)
$_84_z                                             -6 	(obj:0)
$_246_y                                            -1 	(obj:0)
$_246_z                                            -4 	(obj:0)
$_163_y                                             1 	(obj:0)
$_163_z                                            -2 	(obj:0)
$_278_y                                             2 	(obj:0)
$_278_z                                            -3 	(obj:0)
$_205_z                                            -3 	(obj:0)
$_198_y                                             2 	(obj:0)
$_198_z                                             1 	(obj:0)
$_85_z                                             -1 	(obj:0)
$_157_y                                             3 	(obj:0)
$_157_z                                             2 	(obj:0)
$_87_y                                              1 	(obj:0)
$_87_z                                             -1 	(obj:0)
